LAMMPS (10 Dec 2025)
OMP_NUM_THREADS environment is not set. Defaulting to 1 thread.
  using 1 OpenMP thread(s) per MPI task
Loaded 1 plugins from C:\Users\MTA\AppData\Local\LAMMPS 64-bit 10Dec2025-MSMPI\plugins
#in.Tensile_test_CuAlNiFe:

################################START###########################################

# Input file for uniaxial tensile test of single fcc CuAlNiFe crystal

variable T equal 300

# ---------- Initialize Simulation ---------------------
clear
OMP_NUM_THREADS environment is not set. Defaulting to 1 thread.
  using 1 OpenMP thread(s) per MPI task
Restoring plugin: Hello world command v1.1 by Axel Kohlmeyer (akohlmey@gmail.com)
WARNING: Overriding built-in command style hello from plugin (src/PLUGIN/plugin.cpp:556)
Loaded 1 plugins from C:\Users\MTA\AppData\Local\LAMMPS 64-bit 10Dec2025-MSMPI\plugins
units metal                       ## use metal unit system - see lammps manual
boundary p p p                    ## make simulation box periodic along all directions
atom_style full                ## default atom style for metals


read_data Cu_poly_10
Reading data file ...
  triclinic box = (-100 -100 -100) to (100 100 100) with tilt (0 0 0)
  5 by 2 by 3 MPI processor grid
  reading atoms ...
  658001 atoms
Finding 1-2 1-3 1-4 neighbors ...
  special bond factors lj:    0        0        0       
  special bond factors coul:  0        0        0       
     0 = max # of 1-2 neighbors
     0 = max # of 1-3 neighbors
     0 = max # of 1-4 neighbors
     1 = max # of special neighbors
  special bonds CPU = 0.043 seconds
  read_data CPU = 2.793 seconds

# ---------- Define Interatomic Potential ---------------------
pair_style meam                  ## set interatomic potential style to be MEAM
pair_coeff * *  library.meam Al Co Cu Cr Fe Mn Ni Ti FeMnNiTiCuCrCoAl.meam Al Ni Cu Fe
neighbor    0.3 bin                ## define parameters for neighbor list
neigh_modify    delay 20              ## define parameters for neighbor list

# ---------- Define Settings -------------------------
compute csym all centro/atom fcc
compute peratom all pe/atom

# ---------- Run Minimization ---------------------
reset_timestep 0                                        ## reset timestep
thermo 100                                               ## set thermo-properties output on screen every 100 timestep
thermo_style custom step temp pe lx ly lz press pxx pyy pzz## timestep(step), potential energy(pe), box dimension (Lx/Ly/Lz),pressure(press) etc. output on screen
min_style cg                                            ## minimization (using CG method)
minimize 1e-25 1e-25 5000 10000                         ## minimization parameter setup, see manual for more detail
Switching to 'neigh_modify every 1 delay 0 check yes' setting during minimization
Neighbor list info ...
  update: every = 1 steps, delay = 0 steps, check = yes
  max neighbors/atom: 2000, page size: 100000
  master list distance cutoff = 5.3
  ghost atom cutoff = 5.3
  binsize = 2.65, bins = 76 76 76
  3 neighbor lists, perpetual/occasional/extra = 2 1 0
  (1) pair meam, perpetual
      attributes: full, newton on
      pair build: full/bin
      stencil: full/bin/3d
      bin: standard
  (2) pair meam, perpetual, half/full from (1)
      attributes: half, newton on
      pair build: halffull/newton/tri
      stencil: none
      bin: none
  (3) compute centro/atom, occasional, copy from (1)
      attributes: full, newton on
      pair build: copy
      stencil: none
      bin: none
Per MPI rank memory allocation (min/avg/max) = 60.72 | 61.33 | 61.63 Mbytes
   Step          Temp          PotEng           Lx             Ly             Lz           Press           Pxx            Pyy            Pzz      
         0   0             -1240063.3      200            200            200            272038.99      278290.52      276243.03      261583.41    
       100   0             -2463285.3      200            200            200           -37271.702     -36867.105     -37042.338     -37905.661    
       200   0             -2463952.6      200            200            200           -37563.887     -37176.405     -37369.874     -38145.383    
       300   0             -2464295.2      200            200            200           -37736.732     -37356.042     -37561.581     -38292.573    
       400   0             -2464377        200            200            200           -37779.628     -37409.118     -37591.616     -38338.15     
       500   0             -2464479        200            200            200           -37829.433     -37477.338     -37619.134     -38391.826    
       600   0             -2464553.7      200            200            200           -37865.096     -37523.573     -37658.397     -38413.318    
       700   0             -2464597.4      200            200            200           -37886.895     -37563.27      -37667.106     -38430.31     
       751   0             -2464607.4      200            200            200           -37890.943     -37569.186     -37669.122     -38434.52     
Loop time of 1021.69 on 30 procs for 751 steps with 658001 atoms

96.5% CPU use with 30 MPI tasks x 1 OpenMP threads

Minimization stats:
  Stopping criterion = energy tolerance
  Energy initial, next-to-last, final = 
     -1240063.26561996  -2464607.37205849  -2464607.37205849
  Force two-norm initial, final = 678314.61 6.608389
  Force max component initial, final = 199977.2 0.98241997
  Final line search alpha, max atom move = 0.012723683 0.0125
  Iterations, force evaluations = 751 2082

MPI task timing breakdown:
Section |  min time  |  avg time  |  max time  |%varavg| %total
---------------------------------------------------------------
Pair    | 954.5      | 958.82     | 964.71     |   8.5 | 93.85
Bond    | 0.000835   | 0.0009323  | 0.001029   |   0.0 |  0.00
Neigh   | 14.4       | 16.02      | 17.071     |  15.6 |  1.57
Comm    | 30.118     | 35.948     | 40.703     |  48.6 |  3.52
Output  | 0.009796   | 0.01015    | 0.020054   |   1.8 |  0.00
Modify  | 0          | 0          | 0          |   0.0 |  0.00
Other   |            | 10.89      |            |       |  1.07

Nlocal:        21933.4 ave       22054 max       21784 min
Histogram: 2 2 3 1 3 5 4 4 3 3
Nghost:        13621.9 ave       13742 max       13541 min
Histogram: 3 1 5 5 8 3 4 0 0 1
Neighs:         580250 ave      588495 max      571160 min
Histogram: 2 4 1 1 5 5 3 3 3 3
FullNghs:   1.1605e+06 ave 1.17568e+06 max 1.13919e+06 min
Histogram: 1 1 4 1 2 5 5 4 3 4

Total # of neighbors = 34814992
Ave neighs/atom = 52.910242
Ave special neighs/atom = 0
Neighbor list builds = 280
Dangerous builds = 0

#############Minimization Finish--------------------

# ---------- EQUILIBRATION -------------------------
reset_timestep    0
timestep 0.001
                                        ## set timestep 0.001 ps
velocity all create 300 765896 mom yes rot no
fix 1 all npt temp 300 $T 1 iso 0 0 1 drag 1
fix 1 all npt temp 300 300 1 iso 0 0 1 drag 1

### Run for 30 picosecond, timestep is 0.001ps
run 60000
Per MPI rank memory allocation (min/avg/max) = 57.34 | 57.96 | 58.25 Mbytes
   Step          Temp          PotEng           Lx             Ly             Lz           Press           Pxx            Pyy            Pzz      
         0   300           -2464607.4      200            200            200           -34484.188     -34159.651     -34266.368     -35026.544    
       100   161.93474     -2454264.2      198.97452      198.97452      198.97452     -9469.1259     -9086.943      -9230.2296     -10090.205    
       200   160.04337     -2454202.5      198.5675       198.5675       198.5675      -1050.5817     -767.09368     -850.54392     -1534.1074    
       300   161.96313     -2454301.8      198.50611      198.50611      198.50611      148.15087      388.42618      286.93987     -230.91344    
       400   163.98783     -2454404        198.51073      198.51073      198.51073     -65.496199      157.40988      138.9846      -492.88308    
       500   165.17762     -2454432.6      198.50486      198.50486      198.50486      23.872307      248.55007      155.06499     -331.99814    
       600   166.54273     -2454474.3      198.50395      198.50395      198.50395      8.9243575      163.85243      215.9768      -353.05616    
       700   168.09937     -2454531.1      198.50334      198.50334      198.50334     -9.2503143      161.24483      188.45428     -377.45006    
       800   169.19537     -2454547.7      198.50435      198.50435      198.50435     -44.494472      86.189683      293.69644     -513.36954    
       900   170.18037     -2454554.4      198.49993      198.49993      198.49993      41.892504      140.27731      369.69208     -384.29187    
      1000   171.18297     -2454562.2      198.5063       198.5063       198.5063      -75.163567     -42.212337      340.82313     -524.10149    
      1100   172.41693     -2454589.3      198.50146      198.50146      198.50146      40.705367      148.92552      485.72187     -512.53129    
      1200   173.34351     -2454590        198.5049       198.5049       198.5049      -66.969414      98.55127       254.92042     -554.37993    
      1300   174.05024     -2454571.8      198.50173      198.50173      198.50173      14.350704      189.25002      362.38468     -508.58259    
      1400   174.89518     -2454565.2      198.5018       198.5018       198.5018      -5.7551932      112.615        390.83655     -520.71712    
      1500   175.85876     -2454568.7      198.50187      198.50187      198.50187     -16.934159      19.234186      397.62208     -467.65874    
      1600   176.75525     -2454566.3      198.50051      198.50051      198.50051      2.7387766      2.243808       412.53056     -406.55804    
      1700   177.36358     -2454539.4      198.50327      198.50327      198.50327     -21.327065      102.08417      391.19656     -557.26193    
      1800   178.21374     -2454533.1      198.50004      198.50004      198.50004      63.742275      134.98234      452.04018     -395.79569    
      1900   179.14565     -2454533.5      198.50121      198.50121      198.50121      12.53212       103.88459      342.38894     -408.67717    
      2000   179.75832     -2454506.9      198.50156      198.50156      198.50156     -4.2949415      70.793291      385.7664      -469.44452    
      2100   180.51194     -2454492.2      198.50107      198.50107      198.50107      54.158201      130.48084      429.01793     -397.02417    
      2200   181.42795     -2454491.2      198.50428      198.50428      198.50428     -57.911661     -9.9514225      328.43789     -492.22145    
      2300   181.93459     -2454455.5      198.50118      198.50118      198.50118      50.686279      105.09191      380.54926     -333.58234    
      2400   182.51191     -2454425.8      198.50519      198.50519      198.50519     -28.535826      67.343891      238.10976     -391.06113    
      2500   183.14332     -2454400.6      198.50484      198.50484      198.50484      12.908866      8.2267754      433.1498      -402.64998    
      2600   183.83618     -2454380.7      198.50475      198.50475      198.50475      14.460572      44.794512      398.64795     -400.06074    
      2700   184.46688     -2454355.5      198.50844      198.50844      198.50844     -37.854814     -15.342445      314.59911     -412.82111    
      2800   185.40941     -2454356.8      198.50359      198.50359      198.50359      39.611743      44.540055      404.95457     -330.6594     
      2900   185.72112     -2454304.5      198.5083       198.5083       198.5083      -71.164635      68.618217      113.89257     -396.00469    
      3000   186.78614     -2454316.3      198.50818      198.50818      198.50818     -19.441955      99.241454      146.37706     -303.94438    
      3100   186.97931     -2454253.9      198.50795      198.50795      198.50795      21.082466      136.98321      299.64587     -373.38168    
      3200   187.67091     -2454233.9      198.51058      198.51058      198.51058      6.5961212      20.506204      267.86692     -268.58476    
      3300   188.54629     -2454229.6      198.51075      198.51075      198.51075      6.0101092      45.319601      255.65673     -282.946      
      3400   188.84566     -2454176.3      198.51255      198.51255      198.51255     -25.430979      63.021928      263.01153     -402.32639    
      3500   189.66062     -2454166.9      198.51194      198.51194      198.51194      10.028602      48.812876      282.20222     -300.92929    
      3600   190.12049     -2454127.4      198.51549      198.51549      198.51549     -15.63184       81.969178      190.62919     -319.49389    
      3700   190.68682     -2454096.9      198.51397      198.51397      198.51397      28.349793      122.11887      379.99295     -417.06244    
      3800   191.18039     -2454060.3      198.51852      198.51852      198.51852     -24.190578      54.789246      323.09367     -450.45465    
      3900   191.71134     -2454026.8      198.51645      198.51645      198.51645      32.325714      140.6821       365.11397     -408.81892    
      4000   192.28019     -2453996.6      198.51781      198.51781      198.51781     -5.6075482      75.035325      253.4543      -345.31227    
      4100   192.85926     -2453967.3      198.52036      198.52036      198.52036     -59.353287      136.09706      191.14696     -505.30388    
      4200   193.66746     -2453957.5      198.51894      198.51894      198.51894      13.445282      213.64213      254.55581     -427.8621     
      4300   193.92766     -2453901.2      198.52173      198.52173      198.52173     -13.135479      100.8652       228.29081     -368.56245    
      4400   194.48232     -2453869.9      198.51857      198.51857      198.51857      62.233343      226.24737      340.51598     -380.06332    
      4500   195.07422     -2453841.8      198.52378      198.52378      198.52378     -39.541108      15.066581      299.40687     -433.09677    
      4600   195.67632     -2453814.7      198.52369      198.52369      198.52369     -10.956438      136.6583       288.55642     -458.08403    
      4700   196.43276     -2453800.7      198.52384      198.52384      198.52384     -9.8830425      172.18032      268.68766     -470.51711    
      4800   196.86235     -2453758.9      198.528        198.528        198.528       -65.820228     -7.2762513      309.25499     -499.43943    
      4900   197.14948     -2453705.1      198.52276      198.52276      198.52276      59.678546      193.12301      453.08064     -467.16801    
      5000   197.59005     -2453664.3      198.53166      198.53166      198.53166     -50.127456      43.250464      239.62475     -433.25758    
      5100   198.61496     -2453673.3      198.52621      198.52621      198.52621      66.239742      124.25026      426.34121     -351.87225    
      5200   198.99004     -2453627.1      198.53423      198.53423      198.53423     -92.620121      85.542042      146.78724     -510.18964    
      5300   199.32689     -2453577.6      198.52784      198.52784      198.52784      63.127645      158.54767      261.55157     -230.7163     
      5400   199.98311     -2453555.4      198.53496      198.53496      198.53496     -52.388548      22.217708      255.19047     -434.57383    
      5500   200.43775     -2453516.1      198.52847      198.52847      198.52847      98.492696      233.22705      298.97871     -236.72767    
      5600   200.90084     -2453477.6      198.53699      198.53699      198.53699     -43.780332      16.326397      250.8932      -398.5606     
      5700   201.30978     -2453434.5      198.53293      198.53293      198.53293      49.712316      89.43014       370.96171     -311.2549     
      5800   202.05684     -2453420.2      198.53768      198.53768      198.53768     -33.537803      5.5956336      327.35354     -433.56259    
      5900   202.38225     -2453370.2      198.53585      198.53585      198.53585      35.14959       93.992904      339.78721     -328.33134    
      6000   203.39521     -2453378.7      198.53912      198.53912      198.53912     -35.319298     -36.702642      258.55305     -327.8083     
      6100   203.6366      -2453321.6      198.53869      198.53869      198.53869      26.591551      140.29648      248.9856      -309.50743    
      6200   203.86747     -2453263.7      198.54169      198.54169      198.54169      3.0613633      195.2333       192.75435     -378.80356    
      6300   204.56663     -2453245.7      198.54013      198.54013      198.54013      19.797252      102.39024      379.36635     -422.36484    
      6400   205.0869      -2453212.5      198.54311      198.54311      198.54311     -2.7778576      104.1236       289.66439     -402.12156    
      6500   205.47414     -2453168.1      198.54435      198.54435      198.54435      32.068111      28.398338      455.16756     -387.36157    
      6600   206.36435     -2453166.6      198.54308      198.54308      198.54308      65.753309      51.623215      452.95951     -307.3228     
      6700   207.03699     -2453146.6      198.54868      198.54868      198.54868     -81.629292     -91.092467      223.65681     -377.45222    
      6800   207.07967     -2453073.1      198.54607      198.54607      198.54607      16.944846     -17.619656      406.04344     -337.58925    
      6900   207.69063     -2453048        198.54943      198.54943      198.54943     -44.761081      38.636753      182.95357     -355.87356    
      7000   207.99532     -2452997        198.54974      198.54974      198.54974     -26.555324      85.71642       341.81996     -507.20235    
      7100   208.73279     -2452982.8      198.54905      198.54905      198.54905      34.377436     -70.399765      382.42787     -208.89579    
      7200   209.19635     -2452945.5      198.5542       198.5542       198.5542      -54.220501      21.830162      272.5006      -456.99227    
      7300   209.93745     -2452931.9      198.55021      198.55021      198.55021      22.080471      42.743037      385.48165     -361.98328    
      7400   210.10583     -2452869.5      198.55563      198.55563      198.55563     -46.025333      38.549469      193.43806     -370.06353    
      7500   210.65734     -2452839.8      198.55325      198.55325      198.55325      48.798872      103.13042      423.30019     -380.034      
      7600   211.00797     -2452793.2      198.55714      198.55714      198.55714     -14.654312      34.116339      370.98021     -449.05949    
      7700   211.75789     -2452780.7      198.55813      198.55813      198.55813     -44.311988      133.03891      131.18479     -397.15966    
      7800   212.07329     -2452731.2      198.55709      198.55709      198.55709      16.249091      122.43783      255.98511     -329.67566    
      7900   212.52963     -2452693.8      198.56072      198.56072      198.56072     -0.0034863947  -21.994689      308.87678     -286.89255    
      8000   212.89253     -2452648.6      198.55901      198.55901      198.55901      38.930537      124.26137      323.1366      -330.60636    
      8100   213.68392     -2452639.9      198.56438      198.56438      198.56438     -63.418128     -2.3094282      234.49021     -422.43516    
      8200   213.90403     -2452582.7      198.55917      198.55917      198.55917      114.9923       172.26493      362.06103     -189.34906    
      8300   214.41204     -2452550.1      198.56646      198.56646      198.56646     -39.515451      17.754641      335.00789     -471.30889    
      8400   215.33051     -2452552.5      198.56356      198.56356      198.56356      30.256419      75.86216       471.21787     -456.31077    
      8500   215.50964     -2452492.1      198.56551      198.56551      198.56551      38.224042      84.657192      420.08489     -390.06995    
      8600   216.18181     -2452473.7      198.56876      198.56876      198.56876     -41.217777      47.497893      280.0458      -451.19702    
      8700   216.46137     -2452422        198.56819      198.56819      198.56819      14.223381      185.34845      336.41704     -479.09534    
      8800   217.12347     -2452403.1      198.57084      198.57084      198.57084     -21.366695      37.593911      301.75496     -403.44895    
      8900   217.30097     -2452343        198.57059      198.57059      198.57059      31.992589      140.91905      313.33694     -358.27822    
      9000   218.11711     -2452337.4      198.57098      198.57098      198.57098      49.283697     -7.4595588      316.68726     -161.37661    
      9100   218.5745      -2452301.3      198.5749       198.5749       198.5749      -17.73274      -73.053861      366.36069     -346.50505    
      9200   218.91158     -2452255.1      198.57428      198.57428      198.57428      7.5368318      60.17306       274.96594     -312.52851    
      9300   219.68037     -2452245.8      198.57676      198.57676      198.57676     -47.810529     -30.969891      328.60007     -441.06176    
      9400   219.97245     -2452196.1      198.57579      198.57579      198.57579     -13.01765      -84.902272      434.08407     -388.23475    
      9500   220.11792     -2452133.9      198.57804      198.57804      198.57804      13.248679     -4.8485501      365.67232     -321.07773    
      9600   220.62769     -2452102.8      198.57851      198.57851      198.57851      25.620519      79.024374      373.03454     -375.19736    
      9700   221.64471     -2452115.1      198.58065      198.58065      198.58065     -27.061337      12.053422      316.41968     -409.65712    
      9800   221.67627     -2452043.6      198.58185      198.58185      198.58185     -26.835116      112.42708      291.90647     -484.8389     
      9900   221.98545     -2451995.9      198.58187      198.58187      198.58187      10.893108      54.863489      275.45609     -297.64026    
     10000   222.39926     -2451957.1      198.58492      198.58492      198.58492     -30.197012     -95.00212       252.83701     -248.42593    
     10100   223.10511     -2451943.4      198.58293      198.58293      198.58293      27.414625      57.155761      381.18752     -356.0994     
     10200   223.39361     -2451894.3      198.58685      198.58685      198.58685     -1.7402138      60.606876      350.81759     -416.64511    
     10300   223.92467     -2451865.9      198.58561      198.58561      198.58561      28.783078      53.030483      366.39406     -333.07531    
     10400   224.14965     -2451811.6      198.58787      198.58787      198.58787     -13.551357      11.932977      409.16987     -461.75692    
     10500   224.86971     -2451799.6      198.58923      198.58923      198.58923     -47.22273       5.3729807      280.12763     -427.1688     
     10600   225.21509     -2451755.8      198.58947      198.58947      198.58947     -3.4506781      11.273631      399.30088     -420.92655    
     10700   225.8789      -2451739.3      198.59014      198.59014      198.59014     -4.747678       80.669853      343.7442      -438.65708    
     10800   226.29662     -2451701.9      198.59425      198.59425      198.59425     -35.489107     -5.4867586      316.01716     -416.99772    
     10900   226.79641     -2451671.7      198.59202      198.59202      198.59202      83.992576      43.651967      458.10451     -249.77875    
     11000   227.14732     -2451629        198.59589      198.59589      198.59589     -13.424041      28.852372      299.35349     -368.47799    
     11100   227.63275     -2451597.7      198.5938       198.5938       198.5938       35.709343      69.119858      414.45268     -376.44451    
     11200   228.04812     -2451560.8      198.59913      198.59913      198.59913     -31.597445      39.941305      216.61212     -351.34576    
     11300   228.35871     -2451515        198.59496      198.59496      198.59496      74.840486      157.98457      460.35535     -393.81847    
     11400   228.89831     -2451488.9      198.6032       198.6032       198.6032      -72.605184     -39.648031      356.07435     -534.24187    
     11500   229.71592     -2451486.5      198.59636      198.59636      198.59636      84.865768      102.17176      554.94175     -402.51621    
     11600   230.02314     -2451440.9      198.60519      198.60519      198.60519     -63.105551     -49.693359      422.99075     -562.61404    
     11700   230.65311     -2451422.9      198.60125      198.60125      198.60125      28.76195       111.87675      431.85197     -457.44287    
     11800   230.7122      -2451356.5      198.60414      198.60414      198.60414     -17.162871      78.657825      323.95715     -454.10359    
     11900   231.2823      -2451333.7      198.60525      198.60525      198.60525     -7.5685627     -10.118479      475.86904     -488.45625    
     12000   231.53913     -2451284.4      198.60511      198.60511      198.60511      34.236842      141.41294      370.9027      -409.60511    
     12100   232.28724     -2451277.1      198.60926      198.60926      198.60926     -34.170208      34.063927      326.63605     -463.2106     
     12200   232.40892     -2451216.6      198.60625      198.60625      198.60625      51.549063      4.8485951      351.9578      -202.15921    
     12300   232.97188     -2451193.8      198.61118      198.61118      198.61118     -27.640368      12.073269      360.10675     -455.10112    
     12400   233.56789     -2451173.9      198.60976      198.60976      198.60976      23.060893      65.728026      347.52222     -344.06757    
     12500   233.8786      -2451130        198.6121       198.6121       198.6121       22.53266       85.205492      390.57034     -408.17785    
     12600   234.50672     -2451113.2      198.61248      198.61248      198.61248      6.7322588      42.622089      336.12484     -358.55015    
     12700   234.83222     -2451070.9      198.61544      198.61544      198.61544     -25.411869      1.7374436      351.01878     -428.99183    
     12800   235.58606     -2451065.2      198.61444      198.61444      198.61444     -12.205258      28.314113      371.64224     -436.57213    
     12900   235.43775     -2450982.8      198.61599      198.61599      198.61599      14.031225      113.48615      266.18266     -337.57514    
     13000   235.81769     -2450945.6      198.61738      198.61738      198.61738      1.511623       81.234959      365.51501     -442.2151     
     13100   236.23689     -2450911.9      198.61745      198.61745      198.61745      26.273615      102.31715      297.68743     -321.18374    
     13200   236.86521     -2450896.1      198.61955      198.61955      198.61955     -7.3869362      88.48175       221.23535     -331.87791    
     13300   237.31901     -2450865.7      198.61871      198.61871      198.61871      35.641704      77.880412      406.74039     -377.69569    
     13400   237.79879     -2450837.7      198.62401      198.62401      198.62401     -37.584363      93.766995      208.72143     -415.24151    
     13500   237.93309     -2450780.4      198.61865      198.61865      198.61865      104.93832      232.43689      405.41656     -323.03849    
     13600   238.7976      -2450785.4      198.62767      198.62767      198.62767     -68.618102     -13.987775      221.02558     -412.89211    
     13700   239.07972     -2450741.1      198.62017      198.62017      198.62017      84.193658      149.90111      450.51861     -347.83874    
     13800   239.48135     -2450707.1      198.62911      198.62911      198.62911     -65.604872      24.665376      286.07862     -507.55861    
     13900   240.0767      -2450689.8      198.62569      198.62569      198.62569     -12.523488      38.892885      318.81187     -395.27521    
     14000   240.12275     -2450625.9      198.62682      198.62682      198.62682      24.771831      95.053333      363.21604     -383.95388    
     14100   241.17287     -2450647.6      198.6285       198.6285       198.6285      -13.993578      1.5758967      378.18399     -421.74062    
     14200   240.82221     -2450550.3      198.62957      198.62957      198.62957      27.857027      75.525477      432.48374     -424.43813    
     14300   241.63782     -2450552.4      198.63033      198.63033      198.63033      24.350486      104.62097      282.95146     -314.52097    
     14400   241.6764      -2450488.5      198.63119      198.63119      198.63119      40.496815      118.5827       391.94403     -389.03628    
     14500   242.23417     -2450469.1      198.6344       198.6344       198.6344      -25.571949      98.145377      252.47812     -427.33935    
     14600   242.74074     -2450445.5      198.63314      198.63314      198.63314      22.213281      101.45833      315.3562      -350.17469    
     14700   243.19731     -2450417.9      198.63584      198.63584      198.63584     -21.176665      34.784408      373.89111     -472.20551    
     14800   243.80256     -2450403        198.63631      198.63631      198.63631      4.5702835      24.611909      350.07436     -360.97542    
     14900   244.11857     -2450363.7      198.63611      198.63611      198.63611      23.523116      113.73616      279.31115     -322.47796    
     15000   244.425       -2450323.8      198.63688      198.63688      198.63688      47.790591      203.61314      328.06524     -388.30661    
     15100   244.64027     -2450276.4      198.64076      198.64076      198.64076     -39.506158      34.808949      235.91299     -389.24041    
     15200   244.82923     -2450226.9      198.63898      198.63898      198.63898      39.245582      131.4524       371.33404     -385.04969    
     15300   245.46863     -2450215.9      198.6398       198.6398       198.6398       19.931902      140.58587      371.59213     -452.3823     
     15400   245.73025     -2450173.1      198.6464       198.6464       198.6464      -97.829508      25.714328      182.9708      -502.17365    
     15500   246.22137     -2450149.8      198.63819      198.63819      198.63819      115.4037       215.096        373.94864     -242.83355    
     15600   246.70817     -2450126.5      198.64844      198.64844      198.64844     -73.346737      23.20411       237.06783     -480.31215    
     15700   247.32261     -2450114.3      198.64169      198.64169      198.64169      57.007384      172.17158      271.59318     -272.74262    
     15800   247.52406     -2450067        198.64903      198.64903      198.64903     -65.191422      162.10972      146.46947     -504.15346    
     15900   247.77295     -2450024        198.64308      198.64308      198.64308      94.441207      279.80919      396.3547      -392.84028    
     16000   248.24172     -2449999.9      198.6512       198.6512       198.6512      -63.428726     -82.426909      276.82159     -384.68086    
     16100   248.45667     -2449954.5      198.64604      198.64604      198.64604      83.443726      177.24133      335.37827     -262.28841    
     16200   249.16061     -2449950.8      198.65033      198.65033      198.65033     -7.1281621      106.13096      323.54925     -451.0647     
     16300   249.48253     -2449914.8      198.6518       198.6518       198.6518       2.6753933      98.210029      322.16422     -412.34807    
     16400   249.87246     -2449884.9      198.65042      198.65042      198.65042      47.398299      230.92538      278.84037     -367.57085    
     16500   250.03468     -2449835.8      198.65527      198.65527      198.65527     -28.450998      77.723805      314.4311      -477.5079     
     16600   250.39993     -2449804.1      198.65082      198.65082      198.65082      81.335926      265.70606      339.75294     -361.45122    
     16700   251.16168     -2449806.5      198.66173      198.66173      198.66173     -154.72389     -100.88018      106.3368      -469.6283     
     16800   251.39046     -2449763.7      198.64917      198.64917      198.64917      159.09301      230.11803      434.48225     -187.32124    
     16900   251.76572     -2449733.6      198.66242      198.66242      198.66242     -107.33928      42.909153      122.88202     -487.809      
     17000   251.6724      -2449663.9      198.65524      198.65524      198.65524      62.327626      298.08437      330.21601     -441.3175     
     17100   252.29669     -2449655.4      198.6601       198.6601       198.6601      -40.084709      9.1625136      249.42476     -378.8414     
     17200   252.93131     -2449648        198.6604       198.6604       198.6604       13.459469      37.170543      442.04477     -438.8369     
     17300   253.55525     -2449639.9      198.6602       198.6602       198.6602       2.4075685      78.246606      280.79515     -351.81905    
     17400   253.68697     -2449590.2      198.66444      198.66444      198.66444     -47.252907     -48.310595      314.58848     -408.03661    
     17500   253.76193     -2449535.8      198.65824      198.65824      198.65824      84.723338      85.187555      450.64925     -281.66679    
     17600   254.18452     -2449511.2      198.66912      198.66912      198.66912     -108.26705     -181.99012      302.80914     -445.62016    
     17700   254.75626     -2449499.5      198.66159      198.66159      198.66159      92.245366      161.44602      439.93582     -324.64574    
     17800   255.17698     -2449475.3      198.66698      198.66698      198.66698     -39.569319     -59.021838      327.44299     -387.12911    
     17900   255.7091      -2449460.7      198.66649      198.66649      198.66649     -18.029138      17.640654      371.53736     -443.26543    
     18000   255.60505     -2449392.3      198.66828      198.66828      198.66828     -15.241008      6.6979817      345.72873     -398.14974    
     18100   256.32366     -2449394        198.66599      198.66599      198.66599      47.853964      126.84538      482.68414     -465.96763    
     18200   256.4504      -2449345.6      198.67018      198.67018      198.67018      18.383051      21.826024      393.51067     -360.18754    
     18300   257.19161     -2449349.7      198.66953      198.66953      198.66953     -6.4465717     -1.7246551      409.38339     -426.99845    
     18400   257.2464      -2449295.6      198.67005      198.67005      198.67005      17.585078      28.867413      445.27343     -421.38561    
     18500   257.51509     -2449260        198.67423      198.67423      198.67423     -38.256102     -22.121597      413.35366     -506.00037    
     18600   257.97498     -2449240.9      198.6697       198.6697       198.6697       85.150785      154.38029      478.6136      -377.54153    
     18700   258.23766     -2449205.3      198.67538      198.67538      198.67538     -38.126091      51.785319      349.60598     -515.76957    
     18800   258.89408     -2449203.4      198.67412      198.67412      198.67412      41.382762      222.71539      337.75296     -436.32005    
     18900   259.05224     -2449159.3      198.67407      198.67407      198.67407      16.709164      130.48295      327.74432     -408.09978    
     19000   259.42453     -2449133.6      198.67814      198.67814      198.67814     -46.922459      55.678388      220.21902     -416.66478    
     19100   259.48133     -2449081.4      198.6756       198.6756       198.6756       49.454755      203.29909      335.92156     -390.85638    
     19200   260.21967     -2449087.4      198.67901      198.67901      198.67901     -55.27866       54.077691      259.4164      -479.33008    
     19300   260.69793     -2449071.4      198.677        198.677        198.677        3.3792581      165.49421      183.82052     -339.17695    
     19400   260.9984      -2449040.7      198.68482      198.68482      198.68482     -124.42833     -60.076386      174.83145     -488.04005    
     19500   261.29133     -2449009.5      198.67781      198.67781      198.67781      67.719234      264.45923      252.66274     -313.96426    
     19600   261.4365      -2448965.9      198.68368      198.68368      198.68368     -74.116188      17.408428      230.92776     -470.68476    
     19700   262.18907     -2448974.3      198.68465      198.68465      198.68465     -22.302185      6.564585       342.74253     -416.21367    
     19800   262.13532     -2448914.3      198.67819      198.67819      198.67819      116.03104      250.57278      412.58496     -315.06461    
     19900   262.67214     -2448904.8      198.69071      198.69071      198.69071     -142.423       -13.428647      114.48387     -528.32421    
     20000   262.62247     -2448845.7      198.67648      198.67648      198.67648      206.13694      293.62115      484.71355     -159.92387    
     20100   263.23398     -2448843.1      198.69178      198.69178      198.69178     -120.52729     -0.79350286     259.59971     -620.38806    
     20200   263.66157     -2448825        198.68064      198.68064      198.68064      121.26306      138.22725      543.21627     -317.65434    
     20300   263.90674     -2448791.8      198.69267      198.69267      198.69267     -117.62124      48.963743      229.49198     -631.31946    
     20400   263.93602     -2448740.2      198.68472      198.68472      198.68472      81.135832      208.80369      365.86935     -331.26554    
     20500   264.30557     -2448718        198.69186      198.69186      198.69186     -39.291193      49.413117      350.40237     -517.68907    
     20600   264.95162     -2448719.6      198.68784      198.68784      198.68784      31.986652      111.53914      276.12328     -291.70247    
     20700   265.1928      -2448686.9      198.68969      198.68969      198.68969      18.517551      54.588442      365.43817     -364.47396    
     20800   265.4961      -2448659.9      198.69216      198.69216      198.69216     -5.43174        146.35341      199.51652     -362.16515    
     20900   265.83836     -2448636.4      198.69199      198.69199      198.69199      8.4017887      78.957196      324.80902     -378.56085    
     21000   265.87527     -2448587        198.69568      198.69568      198.69568     -61.75249       103.87023      241.63036     -530.75806    
     21100   266.84372     -2448617.3      198.69187      198.69187      198.69187      23.190523      26.112835      349.86392     -306.40519    
     21200   266.66685     -2448550.3      198.69638      198.69638      198.69638     -17.14893       91.316146      346.59153     -489.35446    
     21300   267.2293      -2448546.5      198.69566      198.69566      198.69566      7.3083609      61.334658      318.90276     -358.31233    
     21400   267.61776     -2448528.1      198.6978       198.6978       198.6978      -41.755885      20.077723      261.23146     -406.57684    
     21500   268.0948      -2448517.6      198.69541      198.69541      198.69541     -12.875307      38.171013      204.33114     -281.12808    
     21600   268.1766      -2448473.7      198.69992      198.69992      198.69992     -37.505367      127.27751      281.18428     -520.97789    
     21700   268.58531     -2448457.9      198.6965       198.6965       198.6965       47.890764      92.142353      392.32431     -340.79437    
     21800   268.48726     -2448399        198.70106      198.70106      198.70106     -1.8553757      171.94792      302.9973      -480.51134    
     21900   268.80661     -2448376.1      198.69894      198.69894      198.69894      36.787937      148.31989      343.60952     -381.56559    
     22000   269.386       -2448375.7      198.70149      198.70149      198.70149     -22.064091      47.65946       267.64591     -381.49764    
     22100   269.36682     -2448324.4      198.70037      198.70037      198.70037      54.35859       185.1667       216.60381     -238.69474    
     22200   269.69527     -2448303        198.70307      198.70307      198.70307     -2.3670978      205.45709      57.617022     -270.17541    
     22300   270.26178     -2448302.2      198.70145      198.70145      198.70145      18.677353      163.35912      234.66886     -341.99592    
     22400   270.90856     -2448308.4      198.70256      198.70256      198.70256      14.741721      71.594453      298.27899     -325.64828    
     22500   270.82094     -2448252.4      198.70758      198.70758      198.70758     -53.159122     -12.872704      247.88085     -394.48551    
     22600   271.11746     -2448229.3      198.70327      198.70327      198.70327      69.564114      69.237147      352.98863     -213.53343    
     22700   271.3381      -2448200.1      198.7097       198.7097       198.7097      -70.125794     -19.557012      315.72033     -506.5407     
     22800   271.98155     -2448207.1      198.70532      198.70532      198.70532      43.191002      104.59287      405.51133     -380.53119    
     22900   272.03159     -2448163.8      198.70842      198.70842      198.70842      4.9625675      108.9172       246.44836     -340.47786    
     23000   272.04484     -2448117.7      198.70973      198.70973      198.70973     -61.663789     -77.983223      224.38187     -331.39001    
     23100   272.57609     -2448116        198.70828      198.70828      198.70828      5.6284682      22.915728      249.3235      -255.35382    
     23200   272.79756     -2448088.1      198.71051      198.71051      198.71051     -14.468742     -73.405177      304.16591     -274.16696    
     23300   272.9775      -2448056.9      198.71113      198.71113      198.71113      42.844554     -34.831384      339.72252     -176.35747    
     23400   273.32634     -2448040.4      198.71066      198.71066      198.71066      68.217611      75.069506      361.81403     -232.2307     
     23500   273.96443     -2448048.8      198.71458      198.71458      198.71458     -54.688896     -85.209154      220.26675     -299.12428    
     23600   273.84762     -2447993.1      198.71038      198.71038      198.71038      53.504805      60.740647      338.75868     -238.98491    
     23700   274.13069     -2447971.7      198.71438      198.71438      198.71438     -46.861738     -149.51028      229.59171     -220.66664    
     23800   274.76102     -2447980.2      198.71457      198.71457      198.71457     -36.120247     -13.081012      298.20424     -393.48397    
     23900   274.76658     -2447935.8      198.71326      198.71326      198.71326      38.603379      21.153879      274.92183     -180.26558    
     24000   275.10767     -2447920.3      198.71876      198.71876      198.71876     -40.407236     -68.216268      239.92977     -292.93521    
     24100   275.1956      -2447883.4      198.71336      198.71336      198.71336      56.05778       78.345487      297.92175     -208.09389    
     24200   275.36914     -2447854.1      198.71962      198.71962      198.71962     -19.451956     -29.682945      274.84953     -303.52246    
     24300   275.9011      -2447855.6      198.71669      198.71669      198.71669      31.825819      123.64779      299.98931     -328.15965    
     24400   275.99089     -2447819.7      198.71941      198.71941      198.71941     -0.39212214     92.843403      366.89386     -460.91363    
     24500   276.32144     -2447804.6      198.7194       198.7194       198.7194      -4.2561214      64.511869      364.01772     -441.29795    
     24600   276.57146     -2447782.9      198.71874      198.71874      198.71874      44.831717      114.82837      265.85154     -246.18476    
     24700   276.96383     -2447773.5      198.72232      198.72232      198.72232     -24.650551      45.495001      236.67417     -356.12083    
     24800   276.79295     -2447716.5      198.72         198.72         198.72         40.616659      153.04591      307.59268     -338.78861    
     24900   277.21204     -2447710        198.72174      198.72174      198.72174      6.6530644      113.33733      229.5251      -322.90324    
     25000   277.88222     -2447725.3      198.72052      198.72052      198.72052     -7.5965727      101.43555      179.87133     -304.09659    
     25100   277.94629     -2447689.1      198.72341      198.72341      198.72341     -19.923934      28.221323      292.3398      -380.33292    
     25200   278.67842     -2447710.1      198.72366      198.72366      198.72366     -23.2514       -3.1161634      258.93743     -325.57547    
     25300   278.522       -2447655.8      198.72439      198.72439      198.72439     -11.59393       94.04733       254.58107     -383.41019    
     25400   278.91524     -2447648.5      198.7226       198.7226       198.7226       21.069324      85.980313      360.92879     -383.70113    
     25500   279.46143     -2447654.6      198.72874      198.72874      198.72874     -63.2423       -2.1518028      204.52879     -392.10388    
     25600   279.13445     -2447586.6      198.72568      198.72568      198.72568      1.4850717      63.036738      340.36459     -398.94611    
     25700   279.0088      -2447535.9      198.72615      198.72615      198.72615      24.533752      171.49458      290.96174     -388.85507    
     25800   279.5789      -2447544.8      198.72612      198.72612      198.72612      16.978671      48.33772       328.41239     -325.8141     
     25900   279.76624     -2447521.3      198.72857      198.72857      198.72857      20.965529      68.019805      358.27819     -363.40141    
     26000   280.21068     -2447520        198.72846      198.72846      198.72846     -23.953105      80.303435      250.25085     -402.4136     
     26100   280.54142     -2447509.3      198.72745      198.72745      198.72745      13.254901      127.17756      296.8713      -384.28416    
     26200   280.60812     -2447476.5      198.73008      198.73008      198.73008     -21.243116      18.400678      362.60699     -444.73702    
     26300   281.00852     -2447472.2      198.72945      198.72945      198.72945      4.9658169      196.32925      315.00498     -496.43678    
     26400   281.35465     -2447463.7      198.72957      198.72957      198.72957      5.5581546      116.67399      356.09246     -456.09198    
     26500   281.58565     -2447445.6      198.7305       198.7305       198.7305       1.9108665      48.14832       406.57407     -448.98979    
     26600   282.45671     -2447482.2      198.73252      198.73252      198.73252     -76.842593     -0.96954951     272.72257     -502.2808     
     26700   282.04607     -2447410.1      198.73166      198.73166      198.73166      14.065061      164.45767      276.82913     -399.09161    
     26800   282.23003     -2447388.8      198.73098      198.73098      198.73098      20.883706      93.513846      354.85443     -385.71716    
     26900   282.27727     -2447356.2      198.73612      198.73612      198.73612     -46.340743     -35.551419      280.0009      -383.47171    
     27000   282.56189     -2447344        198.73102      198.73102      198.73102      56.483125      72.90735       421.66412     -325.12209    
     27100   282.69917     -2447319.7      198.73859      198.73859      198.73859     -80.519154     -45.382102      218.62916     -414.80452    
     27200   283.22106     -2447328.3      198.73235      198.73235      198.73235      58.130744      62.948826      470.05276     -358.60936    
     27300   283.60475     -2447325.4      198.73688      198.73688      198.73688     -61.209648      72.580905      236.04858     -492.25843    
     27400   283.64081     -2447293.3      198.73454      198.73454      198.73454      7.0194473      52.548216      349.67119     -381.16107    
     27500   283.93799     -2447283.6      198.73865      198.73865      198.73865     -38.043262     -53.497948      190.79808     -251.42992    
     27600   283.95709     -2447250.6      198.7364       198.7364       198.7364       21.099392     -54.865017      451.05352     -332.89033    
     27700   284.20862     -2447237.5      198.7381       198.7381       198.7381      -14.632049     -86.986793      395.09163     -352.00098    
     27800   284.66831     -2447242.5      198.73811      198.73811      198.73811     -36.582087      12.113568      245.56645     -367.42628    
     27900   284.17213     -2447166.5      198.73971      198.73971      198.73971     -13.395548      66.693194      253.85452     -360.73436    
     28000   284.89882     -2447194.6      198.73737      198.73737      198.73737      40.921719      164.78946      281.49586     -323.52017    
     28100   285.11957     -2447180.1      198.74103      198.74103      198.74103     -32.216783      168.98409      220.17143     -485.80587    
     28200   285.00344     -2447137        198.73829      198.73829      198.73829      34.673783      71.83759       293.06781     -260.88405    
     28300   285.10486     -2447112.9      198.74017      198.74017      198.74017      33.912232      97.284288      266.81282     -262.36041    
     28400   285.37572     -2447103.4      198.73971      198.73971      198.73971      25.886492      34.02118       324.66775     -281.02945    
     28500   285.72672     -2447101        198.74087      198.74087      198.74087     -3.7810328      117.94219      300.28152     -429.5668     
     28600   285.84374     -2447078.9      198.74457      198.74457      198.74457     -44.463758      77.453442      297.59116     -508.43587    
     28700   285.82422     -2447045.5      198.73906      198.73906      198.73906      79.642642      218.9373       429.12226     -409.13163    
     28800   286.61761     -2447081.4      198.74429      198.74429      198.74429     -59.762794     -11.18082       255.09102     -423.19858    
     28900   286.89172     -2447073.6      198.74441      198.74441      198.74441     -2.784116       104.67461      358.87276     -471.89972    
     29000   287.01966     -2447053.5      198.74208      198.74208      198.74208      50.421334      118.02672      331.32794     -298.09066    
     29100   287.00575     -2447021.7      198.74513      198.74513      198.74513     -13.886573      36.779588      279.98369     -358.42299    
     29200   286.81767     -2446975.4      198.74197      198.74197      198.74197      82.736382      249.91344      371.52092     -373.22521    
     29300   287.56043     -2447008.6      198.74559      198.74559      198.74559     -28.000415      70.591479      275.3544      -429.94713    
     29400   287.5863      -2446981        198.74709      198.74709      198.74709     -16.290694      166.28455      192.38655     -407.54318    
     29500   287.83899     -2446972.9      198.74379      198.74379      198.74379      59.486867      262.66429      253.09168     -337.29537    
     29600   287.88222     -2446947.3      198.74903      198.74903      198.74903     -94.476978      2.0108363      194.59397     -480.03574    
     29700   287.89669     -2446919.5      198.74383      198.74383      198.74383      49.699074      114.12137      291.42513     -256.44927    
     29800   288.38063     -2446931.9      198.75123      198.75123      198.75123     -79.914417      9.4708946      184.71369     -433.92783    
     29900   288.71916     -2446932.3      198.74515      198.74515      198.74515      70.336381      104.42312      366.13991     -259.55388    
     30000   288.71701     -2446903.9      198.74991      198.74991      198.74991     -45.264305     -18.939595      297.59683     -414.45015    
     30100   288.91833     -2446893.1      198.74774      198.74774      198.74774     -1.5761732      89.642623      267.5905      -361.96164    
     30200   288.78697     -2446854.2      198.74691      198.74691      198.74691      51.458561      166.79087      365.19878     -377.61397    
     30300   289.12509     -2446855.6      198.75191      198.75191      198.75191     -36.522639     -67.297793      201.5036      -243.77373    
     30400   289.65752     -2446873.6      198.74804      198.74804      198.74804      16.99262       109.4418       314.18922     -372.65316    
     30500   289.19055     -2446806.9      198.75129      198.75129      198.75129     -35.222578      22.912144      156.94747     -285.52735    
     30600   289.77403     -2446829.9      198.75069      198.75069      198.75069     -21.84709      -13.466507      236.66736     -288.74212    
     30700   289.84441     -2446809.4      198.75148      198.75148      198.75148     -41.710925      19.798483      160.28767     -305.21892    
     30800   289.92371     -2446790        198.75042      198.75042      198.75042      56.84663       168.66636      325.44584     -323.57232    
     30900   290.21697     -2446789        198.75319      198.75319      198.75319     -35.225268      53.846386      233.49998     -393.02217    
     31000   290.50776     -2446788.1      198.75218      198.75218      198.75218     -19.872291      85.543443      113.92984     -259.09016    
     31100   290.50573     -2446762.6      198.75111      198.75111      198.75111      15.076129      16.949413      328.70165     -300.42267    
     31200   290.66248     -2446750.7      198.75392      198.75392      198.75392     -22.966916      60.601584      227.91147     -357.4138     
     31300   290.91361     -2446747.2      198.75405      198.75405      198.75405     -4.9818055      186.43019      223.99757     -425.37317    
     31400   291.23767     -2446750.1      198.7533       198.7533       198.7533      -24.091155      131.88008      184.72118     -388.87472    
     31500   291.17695     -2446720.6      198.75563      198.75563      198.75563     -26.158995      73.687627      234.94742     -387.11203    
     31600   290.98229     -2446680        198.75322      198.75322      198.75322      18.539906      139.03523      213.46438     -296.87988    
     31700   291.39626     -2446691.3      198.75634      198.75634      198.75634     -28.688455      56.81444       232.14982     -375.02962    
     31800   291.17183     -2446648.6      198.7503       198.7503       198.7503       108.43269      298.18853      364.45998     -337.35044    
     31900   291.59409     -2446661.1      198.75866      198.75866      198.75866     -86.508688      77.957993      24.399558     -361.88362    
     32000   291.7526      -2446651.5      198.75489      198.75489      198.75489     -11.856632      46.726552      283.51607     -365.81252    
     32100   291.86533     -2446638.3      198.75506      198.75506      198.75506      24.887118      111.78207      321.32996     -358.45067    
     32200   292.12427     -2446637.7      198.75826      198.75826      198.75826     -52.080581      52.072167      169.0789      -377.39281    
     32300   292.15875     -2446618.1      198.75362      198.75362      198.75362      33.941012      125.56098      308.06209     -331.80004    
     32400   292.41582     -2446617.8      198.75982      198.75982      198.75982     -22.62327       83.785858      251.01725     -402.67292    
     32500   292.31402     -2446587.3      198.75524      198.75524      198.75524      40.604479      196.34837      219.62517     -294.1601     
     32600   292.68508     -2446597.3      198.75881      198.75881      198.75881      2.6452164      113.88569      225.8698      -331.81984    
     32700   292.78671     -2446584.6      198.75738      198.75738      198.75738      40.894214      198.51553      253.12993     -328.96282    
     32800   293.03903     -2446584.9      198.75963      198.75963      198.75963     -45.55108       91.889322      232.85714     -461.39971    
     32900   292.85915     -2446548.7      198.75979      198.75979      198.75979     -29.434168      26.786518      317.92373     -433.01276    
     33000   293.38177     -2446572.4      198.75932      198.75932      198.75932     -17.72601       11.789541      223.6907      -288.65827    
     33100   293.44133     -2446557.2      198.76038      198.76038      198.76038     -1.600083       82.908369      258.94457     -346.65319    
     33200   293.17233     -2446514.2      198.75862      198.75862      198.75862      1.6081174      43.285636      341.62582     -380.0871     
     33300   293.82487     -2446549.8      198.7623       198.7623       198.7623      -32.89377       79.170455      297.82286     -475.67462    
     33400   293.82588     -2446530.1      198.7594       198.7594       198.7594       19.270498      111.74833      299.17229     -353.10913    
     33500   293.78109     -2446506.8      198.76291      198.76291      198.76291     -74.788499     -30.480358      230.64302     -424.52816    
     33600   294.1267      -2446516.9      198.75923      198.75923      198.75923      18.626052      22.499497      256.7836      -223.40494    
     33700   294.11402     -2446496.8      198.76274      198.76274      198.76274     -25.964148     -92.492251      364.36377     -349.76397    
     33800   294.24702     -2446489.3      198.75907      198.75907      198.75907      66.908762      74.814019      336.60157     -210.6893     
     33900   294.47741     -2446490.3      198.7611       198.7611       198.7611       31.393932      161.49915      246.04183     -313.35918    
     34000   294.27312     -2446454.7      198.76307      198.76307      198.76307     -10.242159      43.134924      265.65028     -339.51168    
     34100   294.6904      -2446472.1      198.76251      198.76251      198.76251     -37.3768        50.605632      223.87457     -386.6106     
     34200   294.66585     -2446452.3      198.76124      198.76124      198.76124      26.756197      46.769287      345.45192     -311.95261    
     34300   294.55839     -2446425.5      198.76659      198.76659      198.76659     -51.491131      110.2513       139.38771     -404.1124     
     34400   294.99764     -2446445.4      198.75956      198.75956      198.75956      84.022848      154.02568      326.64474     -228.60188    
     34500   294.83403     -2446414.4      198.76786      198.76786      198.76786     -76.943355      62.283178      72.920205     -366.03345    
     34600   294.8478      -2446398.7      198.76103      198.76103      198.76103      49.768014      121.13895      337.25639     -309.0913     
     34700   295.17361     -2446410        198.76342      198.76342      198.76342      4.7426245      143.38419      247.70352     -376.85983    
     34800   295.14346     -2446391        198.76537      198.76537      198.76537     -21.78276       65.203559      231.34933     -361.90117    
     34900   295.32685     -2446390.5      198.76089      198.76089      198.76089      93.229756      206.34353      329.76606     -256.42032    
     35000   295.58267     -2446396.2      198.77003      198.77003      198.77003     -107.02457     -31.778631      65.003249     -354.29834    
     35100   295.62266     -2446384        198.76049      198.76049      198.76049      107.26801      116.56321      366.0243      -160.78348    
     35200   295.3415      -2446344.6      198.76578      198.76578      198.76578      37.35791       121.53189      310.64468     -320.10284    
     35300   296.15405     -2446398.6      198.76484      198.76484      198.76484     -21.235985      18.843342      342.80983     -425.36112    
     35400   295.95995     -2446367.1      198.76521      198.76521      198.76521      21.199344      154.50094      242.89353     -333.79645    
     35500   296.08576     -2446363.1      198.76413      198.76413      198.76413      50.028711      172.06801      294.31255     -316.29443    
     35600   295.78358     -2446322.8      198.76946      198.76946      198.76946     -25.423723     -22.554695      237.38074     -291.09721    
     35700   296.50483     -2446370        198.76311      198.76311      198.76311      47.725273      204.71489      232.507       -294.04607    
     35800   295.98641     -2446311.9      198.77081      198.77081      198.77081     -72.466093      80.282298      157.99508     -455.67566    
     35900   296.42463     -2446335.2      198.76177      198.76177      198.76177      87.941931      188.26875      366.26562     -290.70858    
     36000   296.2655      -2446307.9      198.77227      198.77227      198.77227     -85.491109      108.22122      91.246647     -455.9412     
     36100   296.51557     -2446315.7      198.76264      198.76264      198.76264      81.547997      255.71261      263.12441     -274.19303    
     36200   296.52291     -2446303.2      198.77118      198.77118      198.77118     -99.728504      19.098123      78.144561     -396.4282     
     36300   297.05421     -2446335.5      198.76473      198.76473      198.76473      32.369142      244.91398      228.46692     -376.27348    
     36400   296.65458     -2446288.7      198.76983      198.76983      198.76983     -45.361877      107.17258      244.04025     -487.29846    
     36500   296.60717     -2446272.1      198.76711      198.76711      198.76711     -9.0081615      184.72697      143.48396     -355.23541    
     36600   296.94576     -2446288.6      198.76963      198.76963      198.76963     -30.27895      -18.690164      190.37816     -262.52484    
     36700   297.14328     -2446293.2      198.7673       198.7673       198.7673       28.104971      230.99268      187.14309     -333.82086    
     36800   297.00474     -2446269.4      198.76888      198.76888      198.76888      31.544922      205.29616      177.65192     -288.31332    
     36900   297.05584     -2446262.1      198.76828      198.76828      198.76828      26.453202      93.547623      240.66763     -254.85565    
     37000   296.99496     -2446245.4      198.77056      198.77056      198.77056     -35.973738      48.288563      235.58515     -391.79493    
     37100   297.45107     -2446272.9      198.76456      198.76456      198.76456      88.377265      142.359        407.98008     -285.20728    
     37200   297.01201     -2446224.4      198.7722       198.7722       198.7722      -59.797912      20.074747      251.18389     -450.65237    
     37300   297.71909     -2446273.7      198.76514      198.76514      198.76514      66.620362      172.51383      320.86701     -293.51976    
     37400   297.68392     -2446260        198.77089      198.77089      198.77089     -30.666724      81.284864      146.67454     -319.95958    
     37500   297.42387     -2446227.3      198.7697       198.7697       198.7697      -11.263406      122.73926      107.54172     -264.0712     
     37600   297.4441      -2446218.7      198.76909      198.76909      198.76909      35.362356      189.13605      271.69958     -354.74856    
     37700   297.88238     -2446245.8      198.76909      198.76909      198.76909     -25.296499     -75.220741      322.59719     -323.26594    
     37800   298.03483     -2446248.9      198.77132      198.77132      198.77132     -24.415728     -28.005175      236.55593     -281.79793    
     37900   298.19197     -2446252.5      198.768        198.768        198.768        27.283519      138.66859      307.82409     -364.64212    
     38000   298.31542     -2446253.4      198.77298      198.77298      198.77298     -88.31111      -59.155669      133.19339     -338.97105    
     38100   297.97519     -2446215.2      198.76551      198.76551      198.76551      96.631566      77.536733      467.8913      -255.53333    
     38200   297.97009     -2446205.5      198.77453      198.77453      198.77453     -90.04497       33.888925      280.22809     -584.25192    
     38300   298.23541     -2446219.1      198.76467      198.76467      198.76467      103.42716      143.46877      434.82064     -268.00794    
     38400   298.30977     -2446216.8      198.77394      198.77394      198.77394     -40.063125      11.945705      306.13448     -438.26955    
     38500   298.21061     -2446199.8      198.76751      198.76751      198.76751      64.012482      115.7722       382.09292     -305.82767    
     38600   298.41003     -2446208.5      198.77399      198.77399      198.77399     -95.168937      83.778571      187.33775     -556.62313    
     38700   298.18462     -2446181.1      198.76842      198.76842      198.76842      79.399259      206.2224       396.80588     -364.8305     
     38800   298.37005     -2446188.9      198.77324      198.77324      198.77324     -11.527518      132.57822      222.22912     -389.3899     
     38900   298.51987     -2446193.8      198.76975      198.76975      198.76975      76.070573      169.37281      390.35986     -331.52095    
     39000   298.42942     -2446178.5      198.7709       198.7709       198.7709       36.001816      176.52099      329.49534     -398.01088    
     39100   298.44253     -2446172.3      198.77419      198.77419      198.77419     -34.94289       76.778573      242.17076     -423.778      
     39200   298.75283     -2446191.4      198.76829      198.76829      198.76829      76.340859      222.14461      286.98548     -280.10751    
     39300   298.74749     -2446183.9      198.77602      198.77602      198.77602     -71.435062      62.30331       225.31488     -501.92337    
     39400   298.37731     -2446145.6      198.76754      198.76754      198.76754      98.795312      284.74878      282.40958     -270.77242    
     39500   298.86449     -2446180.3      198.77469      198.77469      198.77469     -56.666487      94.026553      133.20001     -397.22602    
     39600   298.85812     -2446173.3      198.76752      198.76752      198.76752      58.387291      300.277        169.47056     -294.58569    
     39700   299.37589     -2446210.9      198.77462      198.77462      198.77462     -78.412994      81.060131      145.52385     -461.82296    
     39800   299.41691     -2446208.2      198.76663      198.76663      198.76663      89.529652      422.50838      212.56273     -366.48215    
     39900   298.70165     -2446141.4      198.77734      198.77734      198.77734     -77.519636      89.373723      114.97812     -436.91075    
     40000   298.86759     -2446149.6      198.76743      198.76743      198.76743      83.98599       338.79515      302.58523     -389.4224     
     40100   299.26987     -2446178.2      198.77357      198.77357      198.77357     -42.040321      92.939288      69.450828     -288.51108    
     40200   299.10126     -2446158.4      198.7701       198.7701       198.7701       49.479335      305.08652      303.85817     -460.50669    
     40300   299.14628     -2446156.8      198.77177      198.77177      198.77177      10.454138      202.71423      179.59118     -350.94299    
     40400   299.13601     -2446150.7      198.77296      198.77296      198.77296     -10.274125      259.75142      155.8085      -446.38229    
     40500   299.17169     -2446148.8      198.77275      198.77275      198.77275     -8.0998558      230.18953      151.66006     -406.14916    
     40600   298.93611     -2446123.9      198.77205      198.77205      198.77205      53.468939      253.6794       277.85692     -371.1295     
     40700   299.35929     -2446155.3      198.77293      198.77293      198.77293      34.926521      243.81647      187.52642     -326.56332    
     40800   299.3984      -2446154.2      198.77361      198.77361      198.77361     -22.828584      53.99814       256.19082     -378.67471    
     40900   299.5331      -2446161.4      198.77033      198.77033      198.77033      63.41835       232.49026      416.4532      -458.68842    
     41000   299.75263     -2446175.8      198.77625      198.77625      198.77625     -62.866623      22.910618      183.99277     -395.50326    
     41100   299.92373     -2446186.4      198.77012      198.77012      198.77012      36.19705       201.60002      337.5892      -430.59807    
     41200   299.50958     -2446147.4      198.77229      198.77229      198.77229      29.237614      71.100842      295.96135     -279.34935    
     41300   299.97687     -2446183.7      198.77642      198.77642      198.77642     -77.829822      19.053791      254.52322     -507.06647    
     41400   299.75888     -2446161.6      198.76788      198.76788      198.76788      82.193007      79.976727      301.93542     -135.33313    
     41500   299.82916     -2446164.3      198.7766       198.7766       198.7766      -65.824417      107.85692      132.3534      -437.68357    
     41600   299.84493     -2446162.5      198.76969      198.76969      198.76969      71.279775      157.64311      336.83427     -280.63805    
     41700   299.66047     -2446144        198.77695      198.77695      198.77695     -97.315092     -59.204688      205.17197     -437.91255    
     41800   300.05706     -2446174.9      198.76929      198.76929      198.76929      57.263031      24.212226      373.91324     -226.33638    
     41900   299.52096     -2446126.6      198.77613      198.77613      198.77613     -34.781433      95.675148      185.18298     -385.20242    
     42000   299.72385     -2446141.2      198.77137      198.77137      198.77137      37.229016      172.81956      251.35191     -312.48442    
     42100   299.89278     -2446153.2      198.77559      198.77559      198.77559     -50.580701      86.497867      102.92207     -341.16204    
     42200   299.92404     -2446153.5      198.77117      198.77117      198.77117      32.29791       268.03209      259.00636     -430.14473    
     42300   299.59591     -2446123.5      198.77446      198.77446      198.77446     -15.892496      233.82665      111.43744     -392.94157    
     42400   299.93356     -2446150.2      198.77179      198.77179      198.77179      18.159135      196.63654      280.08079     -422.23992    
     42500   299.86808     -2446142.8      198.77247      198.77247      198.77247      8.3785847      110.9987       286.40514     -372.26809    
     42600   299.79062     -2446134.5      198.7761       198.7761       198.7761      -46.26918       21.450051      315.37148     -475.62907    
     42700   300.29174     -2446175.7      198.76831      198.76831      198.76831      79.615584      279.12538      420.51715     -460.79578    
     42800   299.91604     -2446142.4      198.77752      198.77752      198.77752     -102.45932      75.2191        105.44525     -488.04231    
     42900   299.80973     -2446132.2      198.76741      198.76741      198.76741      141.70574      354.40457      401.60687     -330.89421    
     43000   300.23837     -2446167.5      198.77657      198.77657      198.77657     -103.82017      40.277726      130.71674     -482.45498    
     43100   300.10395     -2446155.3      198.77282      198.77282      198.77282     -15.508233      196.81824      180.23714     -423.58008    
     43200   300.26897     -2446168.6      198.76873      198.76873      198.76873      37.664824      93.474559      367.61912     -348.09921    
     43300   299.84476     -2446131.8      198.77797      198.77797      198.77797     -110.17192     -144.7812       240.86858     -426.60315    
     43400   300.10763     -2446153.7      198.76692      198.76692      198.76692      137.66555      278.23516      398.91177     -264.15027    
     43500   299.98545     -2446142.9      198.77624      198.77624      198.77624     -104.82424     -31.910592      131.40203     -413.96416    
     43600   299.70467     -2446118.9      198.76945      198.76945      198.76945      83.67383       221.1771       366.48419     -336.6398     
     43700   299.70369     -2446118.7      198.77237      198.77237      198.77237     -39.935387      24.675658      207.68297     -352.16479    
     43800   299.73856     -2446121.8      198.77241      198.77241      198.77241     -2.0836327      129.45626      234.68849     -370.39565    
     43900   299.86173     -2446132.3      198.76819      198.76819      198.76819      105.42442      185.78675      326.89775     -196.41126    
     44000   300.26935     -2446167.1      198.77813      198.77813      198.77813     -124.02716      31.036224      106.7125      -509.8302     
     44100   300.22374     -2446163.4      198.76453      198.76453      198.76453      149.30797      261.63994      416.08045     -229.79649    
     44200   299.82755     -2446130.2      198.77949      198.77949      198.77949     -201.02982     -164.16884      70.424575     -509.34519    
     44300   299.99615     -2446145.1      198.76574      198.76574      198.76574      143.08288      331.05878      287.46495     -189.27509    
     44400   300.11027     -2446155.5      198.7758       198.7758       198.7758      -65.8231       -90.134081      188.38298     -295.7182     
     44500   300.031       -2446149.5      198.77174      198.77174      198.77174     -14.98882       99.563255      176.2755      -320.80522    
     44600   300.22409     -2446166.8      198.7714       198.7714       198.7714       16.487566      200.8116       259.6313      -410.9802     
     44700   300.02203     -2446150.4      198.77109      198.77109      198.77109      6.6213294      181.36806      197.49526     -358.99933    
     44800   299.79885     -2446132.4      198.76983      198.76983      198.76983      42.105907      230.27041      218.25124     -322.20393    
     44900   300.19589     -2446167.1      198.77247      198.77247      198.77247     -23.12317       46.127355      204.01043     -319.5073     
     45000   300.45677     -2446190.3      198.76859      198.76859      198.76859      38.409873      82.729229      264.23372     -231.73332    
     45100   300.06389     -2446158        198.77613      198.77613      198.77613     -38.96181       111.24209      229.93437     -458.06189    
     45200   300.22597     -2446172.9      198.76713      198.76713      198.76713      101.29545      198.65326      328.05218     -222.81908    
     45300   299.83578     -2446141.1      198.7761       198.7761       198.7761      -69.286952     -128.42755      292.81288     -372.24619    
     45400   299.93538     -2446150.8      198.76643      198.76643      198.76643      92.456312      190.48019      329.54655     -242.6578     
     45500   300.04783     -2446161.8      198.77557      198.77557      198.77557     -104.92299      51.072478      38.888554     -404.73001    
     45600   300.07073     -2446165.2      198.76817      198.76817      198.76817      90.326348      320.34477      263.48404     -312.84977    
     45700   299.9992      -2446160.6      198.77314      198.77314      198.77314     -16.779897      70.945765      222.94686     -344.23231    
     45800   300.15069     -2446174.9      198.76953      198.76953      198.76953      53.919357      66.761217      386.99708     -292.00022    
     45900   300.12691     -2446174.6      198.77206      198.77206      198.77206     -29.14787      -6.453085       168.73615     -249.72667    
     46000   299.87831     -2446155.2      198.77109      198.77109      198.77109      19.862113      102.206        312.37544     -354.9951     
     46100   300.11474     -2446177        198.76898      198.76898      198.76898      24.241988      40.97792       273.53701     -241.78897    
     46200   299.9188      -2446162        198.77421      198.77421      198.77421     -39.764867      193.25454      165.32938     -477.87852    
     46300   300.04156     -2446174.1      198.76872      198.76872      198.76872      43.979945      212.95423      275.67583     -356.69022    
     46400   300.28182     -2446196.1      198.77413      198.77413      198.77413     -84.210495      49.59202       167.93316     -470.15667    
     46500   299.72297     -2446150.3      198.76853      198.76853      198.76853      46.188484      89.601098      295.0754      -246.11104    
     46600   300.24074     -2446196        198.77042      198.77042      198.77042      13.174836      111.04351      221.95155     -293.47055    
     46700   300.08359     -2446184.2      198.7709       198.7709       198.7709      -13.000995      172.4757       170.95549     -382.43418    
     46800   300.04239     -2446182.3      198.7702       198.7702       198.7702       21.687799      137.15211      250.82058     -322.9093     
     46900   299.81618     -2446164.5      198.77163      198.77163      198.77163     -17.730311      67.102404      162.09697     -282.39031    
     47000   299.69621     -2446155.9      198.77147      198.77147      198.77147     -9.0413428      197.06282      148.10507     -372.29192    
     47100   300.37473     -2446215.1      198.76759      198.76759      198.76759      61.025908      177.23542      249.22396     -243.38165    
     47200   300.38048     -2446217.2      198.77355      198.77355      198.77355     -72.207807     -55.867201      195.28442     -356.04064    
     47300   300.28124     -2446210.2      198.76698      198.76698      198.76698      54.771672      142.26578      328.41308     -306.36384    
     47400   299.53516     -2446148.2      198.77364      198.77364      198.77364     -43.112573      34.933326      252.76555     -417.03659    
     47500   300.29717     -2446214.4      198.7675       198.7675       198.7675       79.820285      192.08076      319.64465     -272.26455    
     47600   300.00695     -2446191.2      198.77263      198.77263      198.77263     -31.650759      113.22909      250.58774     -458.76911    
     47700   299.98254     -2446190.6      198.76695      198.76695      198.76695      105.81347      177.66265      385.61196     -245.83419    
     47800   299.84637     -2446180.5      198.77084      198.77084      198.77084      8.4828636      90.874387      302.02569     -367.45149    
     47900   300.09804     -2446203.4      198.77108      198.77108      198.77108     -59.519395     -25.750153      200.30309     -353.11112    
     48000   300.34735     -2446226.1      198.76792      198.76792      198.76792      57.280184      142.27617      276.28685     -246.72247    
     48100   299.95095     -2446193.7      198.77269      198.77269      198.77269     -11.783108      41.122674      316.9974      -393.4694     
     48200   300.1728      -2446213.9      198.76798      198.76798      198.76798      35.268859      176.01632      261.80229     -332.01203    
     48300   300.28298     -2446224.6      198.77251      198.77251      198.77251     -69.893791      1.9512805      201.96296     -413.59562    
     48400   300.15127     -2446214.7      198.76607      198.76607      198.76607      87.647373      166.4075       285.40733     -188.8727     
     48500   300.12457     -2446213.8      198.77105      198.77105      198.77105     -38.457758      80.937909      221.90414     -418.21532    
     48600   300.18862     -2446220.6      198.76957      198.76957      198.76957     -6.8207126      134.21079      179.59923     -334.27216    
     48700   300.46247     -2446245.2      198.76838      198.76838      198.76838      49.093607      223.01099      206.49436     -282.22454    
     48800   300.15981     -2446220.8      198.77168      198.77168      198.77168     -65.1559        52.783787      201.60338     -449.85487    
     48900   300.3737      -2446240.1      198.76868      198.76868      198.76868     -0.95516516     83.345216      254.05771     -340.26842    
     49000   300.42192     -2446245.5      198.77208      198.77208      198.77208     -55.85293      -32.834195      157.6275      -292.3521     
     49100   300.11914     -2446221.1      198.76578      198.76578      198.76578      83.466904      204.26939      373.18695     -327.05563    
     49200   299.65777     -2446183.1      198.77211      198.77211      198.77211     -21.326879      108.61999      222.70467     -395.3053     
     49300   300.50971     -2446256.9      198.76795      198.76795      198.76795      25.787679      100.34946      174.33525     -197.32167    
     49400   299.78571     -2446196.6      198.76923      198.76923      198.76923      6.7219893      148.84656      150.89171     -279.5723     
     49500   300.02335     -2446218.2      198.769        198.769        198.769        40.003331      144.42107      271.57826     -295.98934    
     49600   300.21664     -2446236        198.76898      198.76898      198.76898      21.197443      73.227594      229.76601     -239.40127    
     49700   299.94054     -2446214        198.77036      198.77036      198.77036      2.8339309      172.76164      99.375315     -263.63516    
     49800   299.81587     -2446204.8      198.76459      198.76459      198.76459      94.335834      148.78255      359.478       -225.25304    
     49900   300.38712     -2446254.8      198.77316      198.77316      198.77316     -116.30396     -9.9225125      24.637045     -363.62641    
     50000   300.0169      -2446224.6      198.76798      198.76798      198.76798      63.155612      136.73737      217.20961     -164.48015    
     50100   300.05457     -2446229.3      198.77137      198.77137      198.77137     -84.07306      -13.399411      168.96884     -407.78861    
     50200   300.09058     -2446233.9      198.76709      198.76709      198.76709      28.492205      215.32561      246.30586     -376.15486    
     50300   300.10192     -2446236.4      198.76788      198.76788      198.76788     -3.4907545      160.60441      141.03127     -312.10795    
     50400   300.31725     -2446256.2      198.76824      198.76824      198.76824     -14.23915       61.484944      92.359149     -196.56154    
     50500   300.09933     -2446239.1      198.77058      198.77058      198.77058     -26.01978       182.29636      203.16868     -463.52438    
     50600   299.88468     -2446222.1      198.7676       198.7676       198.7676       18.63551       144.14603      179.21006     -267.44956    
     50700   299.72918     -2446210.2      198.76934      198.76934      198.76934     -11.683966      192.49013      182.19267     -409.73469    
     50800   299.99557     -2446234.1      198.76843      198.76843      198.76843     -11.724226      121.80594      188.76156     -345.74018    
     50900   300.27015     -2446258.8      198.76514      198.76514      198.76514      55.184751      244.85553      270.98914     -350.29042    
     51000   300.03343     -2446240        198.771        198.771        198.771       -56.017541      77.686896      276.92692     -522.66644    
     51100   300.38805     -2446271.5      198.76561      198.76561      198.76561      26.484142      207.45375      234.41877     -362.42009    
     51200   300.23019     -2446259.6      198.77086      198.77086      198.77086     -72.53947       151.40545      149.74185     -518.76571    
     51300   299.89774     -2446232.7      198.76557      198.76557      198.76557      64.441874      266.76415      202.64613     -276.08465    
     51400   299.98981     -2446241.8      198.76732      198.76732      198.76732      33.274339      80.083893      349.3297      -329.59057    
     51500   299.92094     -2446237.4      198.76928      198.76928      198.76928     -34.663976      144.9921       191.17323     -440.15726    
     51600   299.91798     -2446238.5      198.76704      198.76704      198.76704      27.435337      201.03936      198.06842     -316.80177    
     51700   300.13217     -2446258        198.76826      198.76826      198.76826     -10.18694      -15.788471      306.34154     -321.11389    
     51800   300.10916     -2446257.5      198.76819      198.76819      198.76819     -10.308687      252.97077      199.50098     -483.39781    
     51900   300.05231     -2446254        198.76545      198.76545      198.76545      54.706694      124.08457      347.93065     -307.89514    
     52000   300.0018      -2446251.2      198.76864      198.76864      198.76864     -49.149683      78.265464      157.08092     -382.79544    
     52100   300.11439     -2446262.2      198.76552      198.76552      198.76552      33.544046      135.65893      208.61236     -243.63915    
     52200   300.31778     -2446281.1      198.76788      198.76788      198.76788      23.709531      194.95813      241.63289     -365.46243    
     52300   300.15415     -2446268.6      198.7667       198.7667       198.7667       12.568943      177.15807      159.67367     -299.12491    
     52400   300.45403     -2446295.7      198.76743      198.76743      198.76743     -16.857751      44.451206      318.88071     -413.90517    
     52500   299.88779     -2446249        198.76862      198.76862      198.76862      39.35258       183.98998      294.44055     -360.37279    
     52600   300.38666     -2446293        198.76304      198.76304      198.76304      37.143518      218.19817      232.28989     -339.0575     
     52700   300.08534     -2446269        198.7724       198.7724       198.7724      -136.37026      27.901515      47.378231     -484.39052    
     52800   300.30317     -2446289        198.75983      198.75983      198.75983      161.12635      267.26459      303.14246     -87.02802     
     52900   300.14165     -2446276.7      198.77234      198.77234      198.77234     -97.701006     -11.388543      188.44152     -470.156      
     53000   300.12319     -2446276.6      198.76296      198.76296      198.76296      69.351882      56.29978       412.40622     -260.65035    
     53100   299.99132     -2446266.9      198.77082      198.77082      198.77082     -82.059873      33.632039      95.728125     -375.53978    
     53200   299.9421      -2446264.2      198.76174      198.76174      198.76174      93.000503      201.74324      303.43789     -226.17962    
     53300   300.1238      -2446281        198.77061      198.77061      198.77061     -60.172707      193.53969      149.10196     -523.15978    
     53400   300.09164     -2446279.7      198.76405      198.76405      198.76405      82.099141      160.38299      299.21898     -213.30454    
     53500   299.87195     -2446262.4      198.76807      198.76807      198.76807     -43.646085      207.29102      36.068956     -374.29823    
     53600   299.90839     -2446266.7      198.76494      198.76494      198.76494      54.706126      126.31034      346.57711     -308.76907    
     53700   300.1799      -2446291.3      198.76556      198.76556      198.76556      15.517305      114.19939      210.77423     -278.4217     
     53800   300.29749     -2446302.5      198.76659      198.76659      198.76659     -19.553494      299.86114      6.2179428     -364.73957    
     53900   300.01806     -2446280.1      198.76636      198.76636      198.76636     -0.59136451     77.876987      162.12161     -241.77269    
     54000   299.89988     -2446271.4      198.76855      198.76855      198.76855     -52.028374      98.137439      116.81283     -371.03539    
     54100   300.12855     -2446292.1      198.76366      198.76366      198.76366      55.662363      309.61102      158.86893     -301.49285    
     54200   300.04232     -2446286        198.76735      198.76735      198.76735     -13.407609      78.596061      246.71644     -365.53532    
     54300   300.15549     -2446296.8      198.76519      198.76519      198.76519      20.842739      199.97225      178.57713     -316.02117    
     54400   299.98612     -2446283.6      198.76469      198.76469      198.76469      21.336901      100.82255      275.14478     -311.95663    
     54500   300.40661     -2446320.5      198.76823      198.76823      198.76823     -59.293741      151.65101      92.305994     -421.83822    
     54600   299.82554     -2446272.2      198.76268      198.76268      198.76268      111.11348      278.41277      225.56924     -170.64157    
     54700   299.85236     -2446275.7      198.76717      198.76717      198.76717     -17.378906      138.84171      106.3692      -297.34763    
     54800   299.69416     -2446263.4      198.76618      198.76618      198.76618      24.263725      129.46197      104.48467     -161.15547    
     54900   299.99252     -2446290        198.76233      198.76233      198.76233      69.725417      214.09964      267.98927     -272.91265    
     55000   300.1437      -2446304.1      198.77003      198.77003      198.77003     -105.31037     -34.769599      136.60258     -417.7641     
     55100   300.08042     -2446300        198.76091      198.76091      198.76091      93.310073      203.94885      308.20849     -232.22712    
     55200   300.53993     -2446340.4      198.7694       198.7694       198.7694      -85.241811      123.63665      124.60962     -503.9717     
     55300   299.83501     -2446281.8      198.76046      198.76046      198.76046      114.66406      364.00201      325.7059      -345.71573    
     55400   300.1077      -2446306.3      198.76962      198.76962      198.76962     -84.725851      81.853668      60.203847     -396.23507    
     55500   300.48925     -2446340.1      198.76183      198.76183      198.76183      48.036974      350.16551      171.68038     -377.73497    
     55600   300.34181     -2446328.9      198.76867      198.76867      198.76867     -73.017789      140.62055      9.475584      -369.1495     
     55700   299.82328     -2446286.2      198.76412      198.76412      198.76412      67.574194      220.64279      287.52139     -305.4416     
     55800   299.96844     -2446300        198.76469      198.76469      198.76469     -0.35852352     150.36684      145.40569     -296.8481     
     55900   299.86351     -2446292.4      198.76678      198.76678      198.76678     -57.585023      168.62904      201.78073     -543.16484    
     56000   300.26373     -2446327.9      198.76201      198.76201      198.76201      58.975855      219.88657      298.13534     -341.09435    
     56100   300.25723     -2446328.7      198.77106      198.77106      198.77106     -128.39126     -11.641591      153.16799     -526.70018    
     56200   300.58901     -2446358.3      198.7597       198.7597       198.7597       113.31502      228.25549      317.00928     -205.31971    
     56300   300.18752     -2446325.5      198.76908      198.76908      198.76908     -122.17781      0.38079398     141.40949     -508.32371    
     56400   300.33572     -2446339.5      198.7617       198.7617       198.7617       32.160481      181.16114      226.03449     -310.71419    
     56500   300.17637     -2446327.3      198.76412      198.76412      198.76412     -20.964674      17.503482      201.93145     -282.32896    
     56600   300.16023     -2446327.3      198.76734      198.76734      198.76734     -39.31752       102.36101      102.96244     -323.27601    
     56700   300.19882     -2446332        198.76206      198.76206      198.76206      33.802046      173.82637      331.27979     -403.70002    
     56800   300.31462     -2446343.3      198.76792      198.76792      198.76792     -60.834096     -70.819776      272.83062     -384.51313    
     56900   300.06746     -2446323.7      198.76055      198.76055      198.76055      105.20803      156.56426      368.65603     -209.5962     
     57000   300.11113     -2446328.7      198.76802      198.76802      198.76802     -86.209988      40.617451      171.07233     -470.31975    
     57100   300.39122     -2446353.7      198.7605       198.7605       198.7605       89.445249      135.58564      280.60171     -147.85161    
     57200   300.15303     -2446334.9      198.7654       198.7654       198.7654      -33.18822       45.994837      239.27472     -384.83422    
     57300   300.45745     -2446362.1      198.76383      198.76383      198.76383     -12.968561      172.50412      210.6655      -422.07531    
     57400   300.48835     -2446366.1      198.76469      198.76469      198.76469     -11.143824      139.54905      291.6948      -464.67532    
     57500   300.28999     -2446350.6      198.76453      198.76453      198.76453     -3.9059418      143.22947      157.74332     -312.69062    
     57600   300.22312     -2446346.6      198.76142      198.76142      198.76142      52.833436      202.09517      317.18928     -360.78415    
     57700   300.19245     -2446345.5      198.76618      198.76618      198.76618     -66.348735      122.02663      170.47975     -491.55259    
     57800   300.20494     -2446347.9      198.76218      198.76218      198.76218      24.34578       109.17706      282.32478     -318.4645     
     57900   300.27556     -2446355.3      198.76337      198.76337      198.76337     -14.873698      42.498659      238.83906     -325.95881    
     58000   299.89988     -2446324.7      198.76498      198.76498      198.76498     -2.4570961      144.64273      128.71397     -280.72799    
     58100   300.02369     -2446336.6      198.76113      198.76113      198.76113      33.519671      101.68371      254.24616     -255.37086    
     58200   299.75936     -2446315.4      198.76572      198.76572      198.76572     -52.339652      46.75364       188.52896     -392.30156    
     58300   300.38606     -2446369.9      198.76379      198.76379      198.76379     -27.753489      17.640977      224.30652     -325.20796    
     58400   300.03344     -2446341.2      198.76344      198.76344      198.76344      23.611416      229.32216      48.628152     -207.11607    
     58500   300.19881     -2446356.5      198.76267      198.76267      198.76267      25.053946      110.03886      206.0165      -240.89352    
     58600   299.77888     -2446321.9      198.7623       198.7623       198.7623       29.622733      89.552083      240.82546     -241.50934    
     58700   299.91261     -2446334.6      198.76776      198.76776      198.76776     -63.267953      111.47305      120.67293     -421.94984    
     58800   300.13516     -2446354.7      198.76025      198.76025      198.76025      66.056134      248.01405      272.05734     -321.90298    
     58900   299.94035     -2446339.4      198.76562      198.76562      198.76562     -18.013205      113.70082      183.58074     -351.32118    
     59000   300.16736     -2446360        198.76405      198.76405      198.76405      14.111372      156.35531      191.97412     -305.99532    
     59100   299.91302     -2446339.6      198.76245      198.76245      198.76245      33.298487      119.75123      283.08178     -302.93755    
     59200   300.2403      -2446368.7      198.76687      198.76687      198.76687     -50.663547      66.179714      191.63194     -409.80229    
     59300   300.18559     -2446365.3      198.7619       198.7619       198.7619       27.58802       151.85863      171.97113     -241.06571    
     59400   299.97327     -2446348.4      198.76597      198.76597      198.76597     -72.772318      12.348882      175.83294     -406.49878    
     59500   300.38088     -2446384.2      198.76245      198.76245      198.76245      14.044317      220.9769       94.751795     -273.59575    
     59600   300.11206     -2446362.4      198.76537      198.76537      198.76537     -68.097541      78.185114      72.130033     -354.60777    
     59700   299.97978     -2446352.3      198.76101      198.76101      198.76101      39.780493      98.022162      283.47186     -262.15254    
     59800   300.04538     -2446359        198.76634      198.76634      198.76634     -49.524566      74.193726      27.884224     -250.65165    
     59900   300.23809     -2446376.5      198.76153      198.76153      198.76153      32.174284      155.75441      145.84308     -205.07464    
     60000   299.87012     -2446346.3      198.76293      198.76293      198.76293      17.607083      142.02523      130.04639     -219.25038    
Loop time of 30825.7 on 30 procs for 60000 steps with 658001 atoms

Performance: 0.168 ns/day, 142.712 hours/ns, 1.946 timesteps/s, 1.281 Matom-step/s
95.9% CPU use with 30 MPI tasks x 1 OpenMP threads

MPI task timing breakdown:
Section |  min time  |  avg time  |  max time  |%varavg| %total
---------------------------------------------------------------
Pair    | 29063      | 29172      | 29302      |  37.3 | 94.64
Bond    | 0.026022   | 0.03033    | 0.032552   |   0.7 |  0.00
Neigh   | 166.03     | 186.39     | 196.96     |  52.5 |  0.60
Comm    | 1079.6     | 1218.3     | 1337.4     | 199.4 |  3.95
Output  | 0.25387    | 0.26051    | 0.26806    |   0.8 |  0.00
Modify  | 175.51     | 197.78     | 221.03     |  84.5 |  0.64
Other   |            | 50.74      |            |       |  0.16

Nlocal:        21933.4 ave       22038 max       21790 min
Histogram: 1 3 2 2 3 3 4 4 5 3
Nghost:        13724.3 ave       13818 max       13640 min
Histogram: 2 0 4 8 3 3 4 4 1 1
Neighs:         580366 ave      587246 max      573302 min
Histogram: 2 2 3 3 3 5 5 4 1 2
FullNghs:  1.16073e+06 ave 1.17168e+06 max 1.14358e+06 min
Histogram: 1 1 1 4 3 2 5 6 3 4

Total # of neighbors = 34821944
Ave neighs/atom = 52.920807
Ave special neighs/atom = 0
Neighbor list builds = 3000
Dangerous builds = 3000
unfix 1

### Store final cell length for strain calculations
variable tmp equal "lx"
variable L0 equal ${tmp}
variable L0 equal 198.762934346307
print "Initial Length, L0: ${L0}"
Initial Length, L0: 198.762934346307

######################################
# DEFORMATION
reset_timestep    0

fix        1 all npt temp $T $T 0.01 y 0 0 1 z 0 0 1 drag 1
fix        1 all npt temp 300 $T 0.01 y 0 0 1 z 0 0 1 drag 1
fix        1 all npt temp 300 300 0.01 y 0 0 1 z 0 0 1 drag 1
variable srate equal 1.0e10
variable srate1 equal "v_srate / 1.0e12"
fix        2 all deform 1 x erate ${srate1} units box remap x
fix        2 all deform 1 x erate 0.01 units box remap x

# Output strain and stress info to file
# for units metal, pressure is in [bars] = 100 [kPa] = 1/10000 [GPa]
# p2, p3, p4 are in GPa
variable strain equal "(lx - v_L0)/v_L0"
variable p1 equal "v_strain"
variable p2 equal "-pxx/10000"
variable p3 equal "-pyy/10000"
variable p4 equal "-pzz/10000"
fix def1 all print 100 "${p1} ${p2} ${p3} ${p4}" file CuAlNiFe_poly_10_300.def1.txt screen no

# Use dump.tensile.atom file for Ovito visualization
dump         1 all custom 250 dump.tensile.atom id type xs ys zs c_csym c_peratom fx fy fz

# Display thermo
thermo     1000
thermo_style    custom step v_strain temp v_p2 v_p3 v_p4 ke pe press

run      30000
Per MPI rank memory allocation (min/avg/max) = 57.36 | 57.98 | 58.28 Mbytes
   Step        v_strain         Temp           v_p2           v_p3           v_p4          KinEng         PotEng         Press     
         0  -1.000951e-15   299.87012     -0.014202523   -0.013004639    0.021925038    25504.906     -2446346.3      17.607083    
      1000   0.01           299.96482      1.7004407     -0.013022486    0.005743881    25512.96      -2445565.3     -5643.8738    
      2000   0.02           300.1026       3.1609306      0.0053071635   0.0044233635   25524.679     -2444092.7     -10568.87     
      3000   0.03           299.83243      4.4568076      0.017543767    0.0026069013   25501.7       -2441965.2     -14923.194    
      4000   0.04           300.16903      5.5490453      0.010918953    0.00072791815  25530.329     -2439507.9     -18535.64     
      5000   0.05           300.27254      6.3997162      0.0066763542   0.015049305    25539.133     -2436747.2     -21404.806    
      6000   0.06           300.05746      7.0457699      0.0016398767   0.0018205688   25520.84      -2433973.5     -23497.434    
      7000   0.07           300.06645      7.4642725      0.016191473    0.012082846    25521.605     -2431308.6     -24975.156    
      8000   0.08           300.4056       7.5946826      0.0050065559   0.017739022    25550.45      -2429171.5     -25391.427    
      9000   0.09           300.27076      7.5078502      0.0030633839   0.0052777831   25538.982     -2427605.5     -25053.971    
     10000   0.1            300.4029       7.2434002      0.015987754    0.018253357    25550.22      -2426736.8     -24258.804    
     11000   0.11           300.40376      6.9180836      0.003567042    0.019487408    25550.294     -2426271.6     -23137.127    
     12000   0.12           300.44979      6.6220294      0.016523927    0.010613513    25554.209     -2425949.7     -22163.89     
     13000   0.13           300.71972      6.3683444      0.011011681    0.010307777    25577.167     -2425780.1     -21298.879    
     14000   0.14           300.48099      6.1617201      0.013148647    0.011094027    25556.862     -2425759.9     -20619.876    
     15000   0.15           300.39452      6.0337164      0.0020355774   0.01081913     25549.508     -2425502.7     -20155.237    
     16000   0.16           300.4675       5.9396364      0.016935622    0.010445074    25555.715     -2425268       -19890.057    
     17000   0.17           300.40505      5.8811323      1.7311781e-05  0.0064360229   25550.403     -2424956.2     -19625.285    
     18000   0.18           300.13903      5.837202      -0.002730423    0.017071445    25527.778     -2424445.4     -19505.143    
     19000   0.19           300.19529      5.8318912      0.0030436105   0.013496571    25532.562     -2424166.5     -19494.771    
     20000   0.2            300.08961      5.7617674     -0.0032058978   0.0018503935   25523.574     -2423784.5     -19201.373    
     21000   0.21           300.46091      5.7070887      0.013817899    0.017509475    25555.154     -2423526.8     -19128.053    
     22000   0.22           300.25578      5.6752725      0.011525157   -0.01089294     25537.708     -2423215.8     -18919.683    
     23000   0.23           300.35194      5.6511297      0.021396381    0.010535899    25545.886     -2422916.3     -18943.54     
     24000   0.24           300.10566      5.5900365     -0.00016957584 -2.5834305e-05  25524.939     -2422738.5     -18632.804    
     25000   0.25           300.31968      5.5553694      0.016343089   -0.0041128108   25543.142     -2422446.8     -18558.665    
     26000   0.26           300.43042      5.5453509      0.015918822   -1.9485383e-05  25552.561     -2422090.8     -18537.501    
     27000   0.27           300.47761      5.4988352      0.013581603    0.0075784406   25556.575     -2421838.4     -18399.984    
     28000   0.28           300.11236      5.4541159      0.011293157    0.008658907    25525.509     -2421599.2     -18246.893    
     29000   0.29           300.30431      5.4041766      0.013082604    0.010867944    25541.835     -2421479.1     -18093.757    
     30000   0.3            300.29934      5.3330607      0.0069783271   0.017391497    25541.413     -2421366.6     -17858.102    
Loop time of 24279.5 on 30 procs for 30000 steps with 658001 atoms

Performance: 0.107 ns/day, 224.810 hours/ns, 1.236 timesteps/s, 813.032 katom-step/s
67.4% CPU use with 30 MPI tasks x 1 OpenMP threads

MPI task timing breakdown:
Section |  min time  |  avg time  |  max time  |%varavg| %total
---------------------------------------------------------------
Pair    | 20043      | 20123      | 20220      |  30.6 | 82.88
Bond    | 0.012693   | 0.014573   | 0.021252   |   1.4 |  0.00
Neigh   | 114.18     | 120.88     | 128.24     |  34.8 |  0.50
Comm    | 2409.8     | 2545.7     | 2644.5     | 106.5 | 10.48
Output  | 35.466     | 45.652     | 55.492     |  88.2 |  0.19
Modify  | 1374.7     | 1409.1     | 1437.2     |  48.2 |  5.80
Other   |            | 34.86      |            |       |  0.14

Nlocal:        21933.4 ave       22161 max       21576 min
Histogram: 1 2 1 2 5 3 2 6 3 5
Nghost:        13025.3 ave       13203 max       12851 min
Histogram: 3 0 1 7 4 5 5 2 0 3
Neighs:         573385 ave      584486 max      559389 min
Histogram: 2 2 4 3 0 4 4 4 2 5
FullNghs:  1.14677e+06 ave 1.16848e+06 max 1.11712e+06 min
Histogram: 2 2 1 6 0 3 4 4 4 4

Total # of neighbors = 34403074
Ave neighs/atom = 52.284228
Ave special neighs/atom = 0
Neighbor list builds = 1500
Dangerous builds = 1500

######################################
# SIMULATION DONE
print "All done"
All done

################################FINISH###########################################


Total wall time: 15:35:32
